(set-info :Origin "This instance was generated by: BanditFuzz-- an RL fuzzer for SMT solvers" )
(set-info :Author "Joe Scott, Fed Mora, Vijay Ganesh" )
(set-info :Contact "Joe Scott, joseph.scott@uwaterloo.ca")
(set-logic QF_BV)
(declare-const bool_0 Bool)
(declare-const bool_1 Bool)
(declare-const bool_2 Bool)
(declare-const bool_3 Bool)
(declare-const bool_4 Bool)
(declare-const bv_0 (_ BitVec 32))
(declare-const bv_1 (_ BitVec 32))
(declare-const bv_2 (_ BitVec 32))
(declare-const bv_3 (_ BitVec 32))
(declare-const bv_4 (_ BitVec 32))
(assert (bvuge (bvshl (bvashr #x3055db02  #xa020649e ) (bvsmod #x4879d7a6  bv_0)) (bvsrem (bvshl #xc7da7bc9  bv_3) (bvnor #x8d72a4d5  #xee99ae43 ))))
(assert (bvugt (bvsdiv (bvurem #x10291e64  #x50b66dd4 ) (bvnor #xe193cce4  bv_0)) (bvmul (bvxor #x523ea596  #x72d2b652 ) (bvmul bv_0 bv_1))))
(assert (bvule (bvxnor (bvadd #x2c51bcab  bv_4) (bvnor #x9fb9a29e  bv_0)) (bvurem (bvlshr bv_1 bv_4) (bvudiv bv_4 bv_1))))
(assert (not (bvuge (bvadd bv_2 #x60abe840 ) (bvshl #x9c219361  bv_3))))
(assert (not (or (bvugt #x020e2737  #x486318d4 ) (bvule bv_4 #x6f0f57a8 ))))
(check-sat)
(exit)
